Welcome to the CBC MILP Solver 
Version: Trunk
Build Date: Apr 16 2020 

Starting solution of the Linear programming relaxation problem using Primal Simplex

Using Python-MIP package version 1.8.1
Machines:  4 Jobs:  4
Order: 
Job  0 : machine 0 ( 10 ) machine 3 ( 1 ) machine 2 ( 6 ) machine 1 ( 7 ) 
Job  1 : machine 0 ( 1 ) machine 3 ( 7 ) machine 1 ( 5 ) machine 2 ( 8 ) 
Job  2 : machine 3 ( 9 ) machine 2 ( 3 ) machine 1 ( 7 ) machine 0 ( 1 ) 
Job  3 : machine 1 ( 7 ) machine 3 ( 3 ) machine 0 ( 9 ) machine 2 ( 10 ) 
K:  44
Job  0 , e: machine  0 ( 0 ) machine  1 ( 17 ) machine  2 ( 11 ) machine  3 ( 10 ) 
Job  1 , e: machine  0 ( 0 ) machine  1 ( 8 ) machine  2 ( 13 ) machine  3 ( 1 ) 
Job  2 , e: machine  0 ( 19 ) machine  1 ( 12 ) machine  2 ( 9 ) machine  3 ( 0 ) 
Job  3 , e: machine  0 ( 10 ) machine  1 ( 0 ) machine  2 ( 19 ) machine  3 ( 7 ) 
Job  0 , f: machine  0 ( 14 ) machine  1 ( 0 ) machine  2 ( 7 ) machine  3 ( 13 ) 
Job  1 , f: machine  0 ( 20 ) machine  1 ( 8 ) machine  2 ( 0 ) machine  3 ( 13 ) 
Job  2 , f: machine  0 ( 0 ) machine  1 ( 1 ) machine  2 ( 8 ) machine  3 ( 11 ) 
Job  3 , f: machine  0 ( 10 ) machine  1 ( 22 ) machine  2 ( 0 ) machine  3 ( 19 ) 
EST and LST:
Job: 0 Machine: 0 EST: 0 LST: 20
Job: 0 Machine: 1 EST: 17 LST: 37
Job: 0 Machine: 2 EST: 11 LST: 31
Job: 0 Machine: 3 EST: 10 LST: 30
Job: 1 Machine: 0 EST: 0 LST: 23
Job: 1 Machine: 1 EST: 8 LST: 31
Job: 1 Machine: 2 EST: 13 LST: 36
Job: 1 Machine: 3 EST: 1 LST: 24
Job: 2 Machine: 0 EST: 19 LST: 43
Job: 2 Machine: 1 EST: 12 LST: 36
Job: 2 Machine: 2 EST: 9 LST: 33
Job: 2 Machine: 3 EST: 0 LST: 24
Job: 3 Machine: 0 EST: 10 LST: 25
Job: 3 Machine: 1 EST: 0 LST: 15
Job: 3 Machine: 2 EST: 19 LST: 34
Job: 3 Machine: 3 EST: 7 LST: 22
Order:
Job: 0 Machine: 0 = 0 
Job: 0 Machine: 1 = 3 
Job: 0 Machine: 2 = 2 
Job: 0 Machine: 3 = 1 
Job: 1 Machine: 0 = 0 
Job: 1 Machine: 1 = 2 
Job: 1 Machine: 2 = 3 
Job: 1 Machine: 3 = 1 
Job: 2 Machine: 0 = 3 
Job: 2 Machine: 1 = 2 
Job: 2 Machine: 2 = 1 
Job: 2 Machine: 3 = 0 
Job: 3 Machine: 0 = 2 
Job: 3 Machine: 1 = 0 
Job: 3 Machine: 2 = 3 
Job: 3 Machine: 3 = 1 
Distances:
Job 0, Machine 0 -> Machine 3: distance 10
Job 0, Machine 0 -> Machine 2: distance 11
Job 0, Machine 0 -> Machine 1: distance 17
Job 0, Machine 3 -> Machine 2: distance 1
Job 0, Machine 3 -> Machine 1: distance 7
Job 0, Machine 2 -> Machine 1: distance 6
Job 1, Machine 0 -> Machine 3: distance 1
Job 1, Machine 0 -> Machine 1: distance 8
Job 1, Machine 0 -> Machine 2: distance 13
Job 1, Machine 3 -> Machine 1: distance 7
Job 1, Machine 3 -> Machine 2: distance 12
Job 1, Machine 1 -> Machine 2: distance 5
Job 2, Machine 3 -> Machine 2: distance 9
Job 2, Machine 3 -> Machine 1: distance 12
Job 2, Machine 3 -> Machine 0: distance 19
Job 2, Machine 2 -> Machine 1: distance 3
Job 2, Machine 2 -> Machine 0: distance 10
Job 2, Machine 1 -> Machine 0: distance 7
Job 3, Machine 1 -> Machine 3: distance 7
Job 3, Machine 1 -> Machine 0: distance 10
Job 3, Machine 1 -> Machine 2: distance 19
Job 3, Machine 3 -> Machine 0: distance 3
Job 3, Machine 3 -> Machine 2: distance 12
Job 3, Machine 0 -> Machine 2: distance 9
McCormic linearization
[(1, 2), (3, 2), (0, 0), (3, 3), (2, 0), (2, 3), (1, 0), (0, 2)]
obj:  0.6000000000000001
solutions:  1
+ x(0,0) + 0.10000000000000002x(1,0) 
C:  28.999999999999996
x(0,0) = 0.20	 x(0,1) = 19.00	 x(0,2) = 13.00	 x(0,3) = 10.20	 
x(1,0) = 8.00	 x(1,1) = 16.00	 x(1,2) = 21.00	 x(1,3) = 9.00	 
x(2,0) = 20.20	 x(2,1) = 13.20	 x(2,2) = 10.20	 x(2,3) = 1.20	 
x(3,0) = 10.00	 x(3,1) = 0.00	 x(3,2) = 19.00	 x(3,3) = 7.00	 
y(0,1,0) = 0.37	 y(1,0,0) = 0.63	 
y(0,2,0) = 0.48	 y(2,0,0) = 0.52	 
y(0,3,0) = 0.99	 y(3,0,0) = 0.01	 
y(1,2,0) = 0.30	 y(2,1,0) = 0.70	 
y(1,3,0) = 0.96	 y(3,1,0) = 0.04	 
y(2,3,0) = 0.00	 y(3,2,0) = 1.00	 
y(0,1,1) = 0.48	 y(1,0,1) = 0.52	 
y(0,2,1) = 0.05	 y(2,0,1) = 0.95	 
y(0,3,1) = 0.00	 y(3,0,1) = 1.00	 
y(1,2,1) = 0.12	 y(2,1,1) = 0.88	 
y(1,3,1) = 0.38	 y(3,1,1) = 0.62	 
y(2,3,1) = 0.00	 y(3,2,1) = 1.00	 
y(0,1,2) = 0.48	 y(1,0,2) = 0.52	 
y(0,2,2) = 0.44	 y(2,0,2) = 0.56	 
y(0,3,2) = 1.00	 y(3,0,2) = 0.00	 
y(1,2,2) = 0.00	 y(2,1,2) = 1.00	 
y(1,3,2) = 0.26	 y(3,1,2) = 0.74	 
y(2,3,2) = 0.74	 y(3,2,2) = 0.26	 
y(0,1,3) = 0.28	 y(1,0,3) = 0.72	 
y(0,2,3) = 0.00	 y(2,0,3) = 1.00	 
y(0,3,3) = 0.01	 y(3,0,3) = 0.99	 
y(1,2,3) = 0.04	 y(2,1,3) = 0.96	 
y(1,3,3) = 0.04	 y(3,1,3) = 0.96	 
y(2,3,3) = 0.35	 y(3,2,3) = 0.65	 
obj:  1.063157894736842
erro
[(1, 2), (0, 1), (0, 0), (0, 2), (3, 1), (2, 0), (2, 2), (1, 1)]
cliques:  0 mip: 72
C:  29.699716713880658
x(0,0) = 5.70	 x(0,1) = 22.70	 x(0,2) = 16.70	 x(0,3) = 15.70	 
x(1,0) = -0.00	 x(1,1) = 8.00	 x(1,2) = 13.00	 x(1,3) = 1.00	 
x(2,0) = 22.70	 x(2,1) = 15.70	 x(2,2) = 12.70	 x(2,3) = 3.70	 
x(3,0) = 10.09	 x(3,1) = 0.00	 x(3,2) = 19.09	 x(3,3) = 7.08	 
y(0,1,0) = 0.00	 y(1,0,0) = 1.00	 
y(0,2,0) = 0.70	 y(2,0,0) = 0.30	 
y(0,3,0) = 0.39	 y(3,0,0) = 0.61	 
y(1,2,0) = 0.54	 y(2,1,0) = 0.46	 
y(1,3,0) = 0.62	 y(3,1,0) = 0.38	 
y(2,3,0) = 0.00	 y(3,2,0) = 1.00	 
y(0,1,1) = 0.13	 y(1,0,1) = 0.87	 
y(0,2,1) = 0.00	 y(2,0,1) = 1.00	 
y(0,3,1) = 0.00	 y(3,0,1) = 1.00	 
y(1,2,1) = 0.42	 y(2,1,1) = 0.58	 
y(1,3,1) = 0.04	 y(3,1,1) = 0.96	 
y(2,3,1) = 0.00	 y(3,2,1) = 1.00	 
y(0,1,2) = 0.13	 y(1,0,2) = 0.87	 
y(0,2,2) = 0.14	 y(2,0,2) = 0.86	 
y(0,3,2) = 0.71	 y(3,0,2) = 0.29	 
y(1,2,2) = 0.12	 y(2,1,2) = 0.88	 
y(1,3,2) = 0.92	 y(3,1,2) = 0.08	 
y(2,3,2) = 0.85	 y(3,2,2) = 0.15	 
y(0,1,3) = 0.00	 y(1,0,3) = 1.00	 
y(0,2,3) = 0.14	 y(2,0,3) = 0.86	 
y(0,3,3) = 0.26	 y(3,0,3) = 0.74	 
y(1,2,3) = 0.37	 y(2,1,3) = 0.63	 
y(1,3,3) = 0.38	 y(3,1,3) = 0.62	 
y(2,3,3) = 0.26	 y(3,2,3) = 0.74	 
obj:  0.8863244849307031
solutions:  1
+ 0.013698630136986321x(1,3) + 0.12328767123287669x(3,3) 
[(0, 0), (1, 3), (3, 3), (3, 0), (2, 1), (2, 0), (1, 0), (1, 1)]
cliques:  1 mip: 121
C:  30.999999999998945
x(0,0) = 2.00	 x(0,1) = 21.00	 x(0,2) = 13.00	 x(0,3) = 12.00	 
x(1,0) = -0.00	 x(1,1) = 8.00	 x(1,2) = 13.00	 x(1,3) = 1.00	 
x(2,0) = 24.59	 x(2,1) = 17.59	 x(2,2) = 14.59	 x(2,3) = 1.08	 
x(3,0) = 12.00	 x(3,1) = 0.00	 x(3,2) = 21.00	 x(3,3) = 9.00	 
y(0,1,0) = 0.00	 y(1,0,0) = 1.00	 
y(0,2,0) = 1.00	 y(2,0,0) = 0.00	 
y(0,3,0) = 1.00	 y(3,0,0) = -0.00	 
y(1,2,0) = 0.88	 y(2,1,0) = 0.12	 
y(1,3,0) = 1.00	 y(3,1,0) = 0.00	 
y(2,3,0) = 0.00	 y(3,2,0) = 1.00	 
y(0,1,1) = 0.00	 y(1,0,1) = 1.00	 
y(0,2,1) = 0.14	 y(2,0,1) = 0.86	 
y(0,3,1) = 0.00	 y(3,0,1) = 1.00	 
y(1,2,1) = 0.80	 y(2,1,1) = 0.20	 
y(1,3,1) = -0.00	 y(3,1,1) = 1.00	 
y(2,3,1) = 0.00	 y(3,2,1) = 1.00	 
y(0,1,2) = 0.73	 y(1,0,2) = 0.27	 
y(0,2,2) = 0.20	 y(2,0,2) = 0.80	 
y(0,3,2) = 1.00	 y(3,0,2) = 0.00	 
y(1,2,2) = 0.20	 y(2,1,2) = 0.80	 
y(1,3,2) = 1.00	 y(3,1,2) = -0.00	 
y(2,3,2) = 0.84	 y(3,2,2) = 0.16	 
y(0,1,3) = 0.00	 y(1,0,3) = 1.00	 
y(0,2,3) = 0.13	 y(2,0,3) = 0.87	 
y(0,3,3) = 0.00	 y(3,0,3) = 1.00	 
y(1,2,3) = 0.36	 y(2,1,3) = 0.64	 
y(1,3,3) = 1.00	 y(3,1,3) = -0.00	 
y(2,3,3) = 0.44	 y(3,2,3) = 0.56	 
obj:  0.23131717695479836
solutions:  1
+ 0.1111111111111111x(1,3) + 0.11111111111111112x(2,3) 
[(1, 2), (1, 3), (3, 3), (2, 1), (1, 1), (2, 3), (2, 2), (0, 2)]
cliques:  1 mip: 58
C:  31.311637163276497
x(0,0) = 1.00	 x(0,1) = 23.58	 x(0,2) = 12.00	 x(0,3) = 11.00	 
x(1,0) = -0.00	 x(1,1) = 8.00	 x(1,2) = 13.00	 x(1,3) = 1.00	 
x(2,0) = 27.96	 x(2,1) = 20.96	 x(2,2) = 17.00	 x(2,3) = 8.00	 
x(3,0) = 11.17	 x(3,1) = 0.00	 x(3,2) = 20.17	 x(3,3) = 8.00	 
y(0,1,0) = 0.00	 y(1,0,0) = 1.00	 
y(0,2,0) = 1.00	 y(2,0,0) = -0.00	 
y(0,3,0) = 0.92	 y(3,0,0) = 0.08	 
y(1,2,0) = 0.97	 y(2,1,0) = 0.03	 
y(1,3,0) = 1.00	 y(3,1,0) = 0.00	 
y(2,3,0) = 0.00	 y(3,2,0) = 1.00	 
y(0,1,1) = 0.00	 y(1,0,1) = 1.00	 
y(0,2,1) = 0.17	 y(2,0,1) = 0.83	 
y(0,3,1) = 0.00	 y(3,0,1) = 1.00	 
y(1,2,1) = 0.95	 y(2,1,1) = 0.05	 
y(1,3,1) = -0.00	 y(3,1,1) = 1.00	 
y(2,3,1) = 0.00	 y(3,2,1) = 1.00	 
y(0,1,2) = 0.79	 y(1,0,2) = 0.21	 
y(0,2,2) = 0.32	 y(2,0,2) = 0.68	 
y(0,3,2) = 1.00	 y(3,0,2) = 0.00	 
y(1,2,2) = 0.38	 y(2,1,2) = 0.62	 
y(1,3,2) = 0.86	 y(3,1,2) = 0.14	 
y(2,3,2) = 0.92	 y(3,2,2) = 0.08	 
y(0,1,3) = 0.00	 y(1,0,3) = 1.00	 
y(0,2,3) = 0.29	 y(2,0,3) = 0.71	 
y(0,3,3) = 0.57	 y(3,0,3) = 0.43	 
y(1,2,3) = 0.86	 y(2,1,3) = 0.14	 
y(1,3,3) = 0.86	 y(3,1,3) = 0.14	 
y(2,3,3) = 0.12	 y(3,2,3) = 0.88	 
obj:  0.8317757009345538
solutions:  1
+ 0.04672897196261683x(1,2) + 0.018691588785046724x(0,2) 
[(1, 2), (3, 3), (2, 3), (2, 2), (0, 3), (0, 2)]
cliques:  1 mip: 93
C:  32.00000000000001
x(0,0) = 1.00	 x(0,1) = 25.00	 x(0,2) = 17.02	 x(0,3) = 15.54	 
x(1,0) = 0.00	 x(1,1) = 11.21	 x(1,2) = 16.21	 x(1,3) = 3.93	 
x(2,0) = 25.54	 x(2,1) = 18.54	 x(2,2) = 15.54	 x(2,3) = 6.54	 
x(3,0) = 11.96	 x(3,1) = 0.00	 x(3,2) = 20.96	 x(3,3) = 7.67	 
y(0,1,0) = 0.00	 y(1,0,0) = 1.00	 
y(0,2,0) = 1.00	 y(2,0,0) = 0.00	 
y(0,3,0) = 0.91	 y(3,0,0) = 0.09	 
y(1,2,0) = 0.90	 y(2,1,0) = 0.10	 
y(1,3,0) = 1.00	 y(3,1,0) = 0.00	 
y(2,3,0) = 0.00	 y(3,2,0) = 1.00	 
y(0,1,1) = 0.00	 y(1,0,1) = 1.00	 
y(0,2,1) = 0.02	 y(2,0,1) = 0.98	 
y(0,3,1) = 0.00	 y(3,0,1) = 1.00	 
y(1,2,1) = 0.82	 y(2,1,1) = 0.18	 
y(1,3,1) = 0.14	 y(3,1,1) = 0.86	 
y(2,3,1) = 0.00	 y(3,2,1) = 1.00	 
y(0,1,2) = 0.71	 y(1,0,2) = 0.29	 
y(0,2,2) = 0.09	 y(2,0,2) = 0.91	 
y(0,3,2) = 0.89	 y(3,0,2) = 0.11	 
y(1,2,2) = 0.10	 y(2,1,2) = 0.90	 
y(1,3,2) = 0.87	 y(3,1,2) = 0.13	 
y(2,3,2) = 0.96	 y(3,2,2) = 0.04	 
y(0,1,3) = 0.00	 y(1,0,3) = 1.00	 
y(0,2,3) = 0.00	 y(2,0,3) = 1.00	 
y(0,3,3) = 0.63	 y(3,0,3) = 0.37	 
y(1,2,3) = 0.80	 y(2,1,3) = 0.20	 
y(1,3,3) = 0.86	 y(3,1,3) = 0.14	 
y(2,3,3) = 0.54	 y(3,2,3) = 0.46	 
obj:  0.8719812403268279
solutions:  1
+ 0.05546751188589544x(1,3) + 0.02377179080824088x(3,3) + 0.05705229793977815x(2,3) + 0.006339144215530891x(0,3) 
[(1, 2), (1, 3), (3, 3), (2, 1), (1, 1), (2, 3), (0, 3), (0, 2)]
cliques:  1 mip: 93
C:  32.0
x(0,0) = 0.53	 x(0,1) = 25.00	 x(0,2) = 18.27	 x(0,3) = 10.53	 
x(1,0) = 4.74	 x(1,1) = 14.67	 x(1,2) = 19.67	 x(1,3) = 7.67	 
x(2,0) = 27.07	 x(2,1) = 20.07	 x(2,2) = 17.07	 x(2,3) = 8.07	 
x(3,0) = 10.26	 x(3,1) = 0.00	 x(3,2) = 19.26	 x(3,3) = 7.26	 
y(0,1,0) = 0.22	 y(1,0,0) = 0.78	 
y(0,2,0) = 1.00	 y(2,0,0) = 0.00	 
y(0,3,0) = 0.84	 y(3,0,0) = 0.16	 
y(1,2,0) = 0.77	 y(2,1,0) = 0.23	 
y(1,3,0) = 1.00	 y(3,1,0) = 0.00	 
y(2,3,0) = 0.00	 y(3,2,0) = 1.00	 
y(0,1,1) = 0.13	 y(1,0,1) = 0.87	 
y(0,2,1) = 0.08	 y(2,0,1) = 0.92	 
y(0,3,1) = 0.00	 y(3,0,1) = 1.00	 
y(1,2,1) = 0.67	 y(2,1,1) = 0.33	 
y(1,3,1) = 0.20	 y(3,1,1) = 0.80	 
y(2,3,1) = 0.00	 y(3,2,1) = 1.00	 
y(0,1,2) = 0.81	 y(1,0,2) = 0.19	 
y(0,2,2) = 0.08	 y(2,0,2) = 0.92	 
y(0,3,2) = 0.37	 y(3,0,2) = 0.63	 
y(1,2,2) = 0.02	 y(2,1,2) = 0.98	 
y(1,3,2) = 0.66	 y(3,1,2) = 0.34	 
y(2,3,2) = 0.35	 y(3,2,2) = 0.65	 
y(0,1,3) = 0.20	 y(1,0,3) = 0.80	 
y(0,2,3) = 0.89	 y(2,0,3) = 0.11	 
y(0,3,3) = 0.82	 y(3,0,3) = 0.18	 
y(1,2,3) = 0.53	 y(2,1,3) = 0.47	 
y(1,3,3) = 0.69	 y(3,1,3) = 0.31	 
y(2,3,3) = 0.24	 y(3,2,3) = 0.76	 
obj:  0.9301078292232687
solutions:  1
+ 0.014930399640772349x(1,2) + 0.023462056578356528x(3,2) + 0.010103277952402337x(0,2) 
[(1, 2), (3, 2), (1, 3), (2, 1), (1, 1), (2, 3), (2, 2), (0, 2)]
cliques:  1 mip: 103
C:  33.02274412855377
x(0,0) = 1.00	 x(0,1) = 26.02	 x(0,2) = 20.02	 x(0,3) = 19.02	 
x(1,0) = 0.00	 x(1,1) = 18.57	 x(1,2) = 23.57	 x(1,3) = 10.00	 
x(2,0) = 27.42	 x(2,1) = 20.42	 x(2,2) = 17.42	 x(2,3) = 5.60	 
x(3,0) = 10.00	 x(3,1) = 0.00	 x(3,2) = 19.00	 x(3,3) = 7.00	 
y(0,1,0) = 0.63	 y(1,0,0) = 0.37	 
y(0,2,0) = 1.00	 y(2,0,0) = 0.00	 
y(0,3,0) = 0.77	 y(3,0,0) = 0.23	 
y(1,2,0) = 0.69	 y(2,1,0) = 0.31	 
y(1,3,0) = 1.00	 y(3,1,0) = 0.00	 
y(2,3,0) = 0.00	 y(3,2,0) = 1.00	 
y(0,1,1) = 0.20	 y(1,0,1) = 0.80	 
y(0,2,1) = 0.05	 y(2,0,1) = 0.95	 
y(0,3,1) = 0.00	 y(3,0,1) = 1.00	 
y(1,2,1) = 0.41	 y(2,1,1) = 0.59	 
y(1,3,1) = 0.00	 y(3,1,1) = 1.00	 
y(2,3,1) = 0.00	 y(3,2,1) = 1.00	 
y(0,1,2) = 0.67	 y(1,0,2) = 0.33	 
y(0,2,2) = 0.05	 y(2,0,2) = 0.95	 
y(0,3,2) = 0.61	 y(3,0,2) = 0.39	 
y(1,2,2) = 0.00	 y(2,1,2) = 1.00	 
y(1,3,2) = 0.50	 y(3,1,2) = 0.50	 
y(2,3,2) = 0.92	 y(3,2,2) = 0.08	 
y(0,1,3) = 0.00	 y(1,0,3) = 1.00	 
y(0,2,3) = 0.53	 y(2,0,3) = 0.47	 
y(0,3,3) = 0.00	 y(3,0,3) = 1.00	 
y(1,2,3) = 0.14	 y(2,1,3) = 0.86	 
y(1,3,3) = 0.37	 y(3,1,3) = 0.63	 
y(2,3,3) = 0.18	 y(3,2,3) = 0.82	 
obj:  0.870019939286411
solutions:  1
+ 8.420853190317884e-05x(1,2) + 0.0005789336568344431x(3,2) + 0.006410374491130471x(1,3) + 0.0998950024867832x(3,3) + 0.00034736019410070167x(0,2) + 0.015491738353565269x(2,3) 
[(1, 2), (3, 2), (1, 3), (3, 3), (0, 2), (2, 1), (2, 3), (0, 3), (1, 1)]
cliques:  1 mip: 117
C:  34.0
x(0,0) = 0.57	 x(0,1) = 27.00	 x(0,2) = 21.00	 x(0,3) = 12.28	 
x(1,0) = 4.28	 x(1,1) = 12.28	 x(1,2) = 17.28	 x(1,3) = 5.28	 
x(2,0) = 27.71	 x(2,1) = 20.71	 x(2,2) = 17.07	 x(2,3) = 8.07	 
x(3,0) = 11.20	 x(3,1) = 1.20	 x(3,2) = 23.29	 x(3,3) = 8.20	 
y(0,1,0) = 0.43	 y(1,0,0) = 0.57	 
y(0,2,0) = 1.00	 y(2,0,0) = 0.00	 
y(0,3,0) = 0.68	 y(3,0,0) = 0.32	 
y(1,2,0) = 0.80	 y(2,1,0) = 0.20	 
y(1,3,0) = 1.00	 y(3,1,0) = 0.00	 
y(2,3,0) = 0.00	 y(3,2,0) = 1.00	 
y(0,1,1) = 0.11	 y(1,0,1) = 0.89	 
y(0,2,1) = 0.07	 y(2,0,1) = 0.93	 
y(0,3,1) = 0.00	 y(3,0,1) = 1.00	 
y(1,2,1) = 0.68	 y(2,1,1) = 0.32	 
y(1,3,1) = 0.00	 y(3,1,1) = 1.00	 
y(2,3,1) = 0.00	 y(3,2,1) = 1.00	 
y(0,1,2) = 0.33	 y(1,0,2) = 0.67	 
y(0,2,2) = 0.00	 y(2,0,2) = 1.00	 
y(0,3,2) = 0.52	 y(3,0,2) = 0.48	 
y(1,2,2) = 0.12	 y(2,1,2) = 0.88	 
y(1,3,2) = 0.91	 y(3,1,2) = 0.09	 
y(2,3,2) = 1.00	 y(3,2,2) = 0.00	 
y(0,1,3) = 0.00	 y(1,0,3) = 1.00	 
y(0,2,3) = 0.83	 y(2,0,3) = 0.17	 
y(0,3,3) = 0.04	 y(3,0,3) = 0.96	 
y(1,2,3) = 0.55	 y(2,1,3) = 0.45	 
y(1,3,3) = 0.25	 y(3,1,3) = 0.75	 
y(2,3,3) = 0.18	 y(3,2,3) = 0.82	 
obj:  0.9999999999999999
erro
[(1, 2), (3, 2), (1, 3), (0, 0), (2, 1), (1, 1), (2, 3), (1, 0), (0, 2)]
cliques:  0 mip: 99
C:  34.0
x(0,0) = 0.76	 x(0,1) = 27.00	 x(0,2) = 19.60	 x(0,3) = 18.60	 
x(1,0) = 2.37	 x(1,1) = 11.00	 x(1,2) = 16.00	 x(1,3) = 3.37	 
x(2,0) = 28.32	 x(2,1) = 21.32	 x(2,2) = 18.32	 x(2,3) = 9.32	 
x(3,0) = 15.00	 x(3,1) = 1.13	 x(3,2) = 24.00	 x(3,3) = 8.13	 
y(0,1,0) = 0.24	 y(1,0,0) = 0.76	 
y(0,2,0) = 1.00	 y(2,0,0) = 0.00	 
y(0,3,0) = 0.96	 y(3,0,0) = 0.04	 
y(1,2,0) = 0.88	 y(2,1,0) = 0.12	 
y(1,3,0) = 1.00	 y(3,1,0) = 0.00	 
y(2,3,0) = 0.00	 y(3,2,0) = 1.00	 
y(0,1,1) = 0.01	 y(1,0,1) = 0.99	 
y(0,2,1) = 0.13	 y(2,0,1) = 0.87	 
y(0,3,1) = 0.00	 y(3,0,1) = 1.00	 
y(1,2,1) = 0.83	 y(2,1,1) = 0.17	 
y(1,3,1) = 0.00	 y(3,1,1) = 1.00	 
y(2,3,1) = 0.00	 y(3,2,1) = 1.00	 
y(0,1,2) = 0.20	 y(1,0,2) = 0.80	 
y(0,2,2) = 0.08	 y(2,0,2) = 0.92	 
y(0,3,2) = 0.52	 y(3,0,2) = 0.48	 
y(1,2,2) = 0.34	 y(2,1,2) = 0.66	 
y(1,3,2) = 1.00	 y(3,1,2) = 0.00	 
y(2,3,2) = 0.88	 y(3,2,2) = 0.12	 
y(0,1,3) = 0.00	 y(1,0,3) = 1.00	 
y(0,2,3) = 0.66	 y(2,0,3) = 0.34	 
y(0,3,3) = 0.03	 y(3,0,3) = 0.97	 
y(1,2,3) = 0.76	 y(2,1,3) = 0.24	 
y(1,3,3) = 0.67	 y(3,1,3) = 0.33	 
y(2,3,3) = 0.10	 y(3,2,3) = 0.90	 
obj:  0.9585765665735186
solutions:  1
+ 0.013312063369822323x(1,2) + 0.021632102975961277x(3,2) + 0.010671654106386482x(1,3) + 0.01467352439628141x(3,3) + 0.0036305627372242716x(0,2) 
[(1, 2), (3, 2), (1, 3), (3, 3), (2, 3), (2, 2), (0, 3), (0, 2)]
cliques:  1 mip: 99
C:  34.11017703360883
x(0,0) = 0.74	 x(0,1) = 27.02	 x(0,2) = 20.26	 x(0,3) = 19.26	 
x(1,0) = 2.64	 x(1,1) = 10.64	 x(1,2) = 15.64	 x(1,3) = 3.64	 
x(2,0) = 28.20	 x(2,1) = 21.20	 x(2,2) = 18.20	 x(2,3) = 7.27	 
x(3,0) = 14.00	 x(3,1) = 3.64	 x(3,2) = 23.95	 x(3,3) = 11.00	 
y(0,1,0) = 0.26	 y(1,0,0) = 0.74	 
y(0,2,0) = 1.00	 y(2,0,0) = 0.00	 
y(0,3,0) = 0.92	 y(3,0,0) = 0.08	 
y(1,2,0) = 0.90	 y(2,1,0) = 0.10	 
y(1,3,0) = 1.00	 y(3,1,0) = 0.00	 
y(2,3,0) = 0.00	 y(3,2,0) = 1.00	 
y(0,1,1) = 0.03	 y(1,0,1) = 0.97	 
y(0,2,1) = 0.07	 y(2,0,1) = 0.93	 
y(0,3,1) = 0.00	 y(3,0,1) = 1.00	 
y(1,2,1) = 0.82	 y(2,1,1) = 0.18	 
y(1,3,1) = 0.00	 y(3,1,1) = 1.00	 
y(2,3,1) = 0.00	 y(3,2,1) = 1.00	 
y(0,1,2) = 0.56	 y(1,0,2) = 0.44	 
y(0,2,2) = 0.04	 y(2,0,2) = 0.96	 
y(0,3,2) = 0.41	 y(3,0,2) = 0.59	 
y(1,2,2) = 0.35	 y(2,1,2) = 0.65	 
y(1,3,2) = 1.00	 y(3,1,2) = 0.00	 
y(2,3,2) = 0.88	 y(3,2,2) = 0.12	 
y(0,1,3) = 0.00	 y(1,0,3) = 1.00	 
y(0,2,3) = 0.58	 y(2,0,3) = 0.42	 
y(0,3,3) = 0.22	 y(3,0,3) = 0.78	 
y(1,2,3) = 0.58	 y(2,1,3) = 0.42	 
y(1,3,3) = 0.76	 y(3,1,3) = 0.24	 
y(2,3,3) = 0.54	 y(3,2,3) = 0.46	 
obj:  0.9844529228756491
solutions:  1
+ 0.0037216226274655747x(1,2) + 0.007443245254931156x(3,2) + 0.04652028284331969x(1,3) + 0.014886490509862299x(3,3) + 0.044659471529586874x(2,3) + 0.004465947152958691x(0,2) 
[(1, 2), (3, 2), (1, 3), (3, 3), (2, 3), (0, 3), (0, 2)]
cliques:  1 mip: 108
C:  34.99999999999999
x(0,0) = 0.54	 x(0,1) = 27.62	 x(0,2) = 20.45	 x(0,3) = 19.45	 
x(1,0) = 4.56	 x(1,1) = 12.56	 x(1,2) = 17.56	 x(1,3) = 5.56	 
x(2,0) = 28.53	 x(2,1) = 21.53	 x(2,2) = 16.61	 x(2,3) = 7.61	 
x(3,0) = 11.25	 x(3,1) = 0.80	 x(3,2) = 23.65	 x(3,3) = 8.25	 
y(0,1,0) = 0.46	 y(1,0,0) = 0.54	 
y(0,2,0) = 1.00	 y(2,0,0) = 0.00	 
y(0,3,0) = 0.59	 y(3,0,0) = 0.41	 
y(1,2,0) = 0.84	 y(2,1,0) = 0.16	 
y(1,3,0) = 1.00	 y(3,1,0) = 0.00	 
y(2,3,0) = 0.00	 y(3,2,0) = 1.00	 
y(0,1,1) = 0.00	 y(1,0,1) = 1.00	 
y(0,2,1) = 0.04	 y(2,0,1) = 0.96	 
y(0,3,1) = 0.00	 y(3,0,1) = 1.00	 
y(1,2,1) = 0.72	 y(2,1,1) = 0.28	 
y(1,3,1) = 0.20	 y(3,1,1) = 0.80	 
y(2,3,1) = 0.00	 y(3,2,1) = 1.00	 
y(0,1,2) = 0.63	 y(1,0,2) = 0.37	 
y(0,2,2) = 0.01	 y(2,0,2) = 0.99	 
y(0,3,2) = 0.75	 y(3,0,2) = 0.25	 
y(1,2,2) = 0.09	 y(2,1,2) = 0.91	 
y(1,3,2) = 0.92	 y(3,1,2) = 0.08	 
y(2,3,2) = 0.82	 y(3,2,2) = 0.18	 
y(0,1,3) = 0.00	 y(1,0,3) = 1.00	 
y(0,2,3) = 0.31	 y(2,0,3) = 0.69	 
y(0,3,3) = 0.03	 y(3,0,3) = 0.97	 
y(1,2,3) = 0.48	 y(2,1,3) = 0.52	 
y(1,3,3) = 0.30	 y(3,1,3) = 0.70	 
y(2,3,3) = 0.17	 y(3,2,3) = 0.83	 
obj:  0.9999999999999998
erro
[(1, 2), (1, 3), (0, 0), (3, 0), (2, 3), (1, 0), (0, 2), (0, 3)]
cliques:  0 mip: 110
C:  35.0
x(0,0) = 1.00	 x(0,1) = 25.53	 x(0,2) = 17.98	 x(0,3) = 16.98	 
x(1,0) = 0.00	 x(1,1) = 14.17	 x(1,2) = 19.17	 x(1,3) = 7.17	 
x(2,0) = 25.53	 x(2,1) = 18.53	 x(2,2) = 15.53	 x(2,3) = 5.12	 
x(3,0) = 12.27	 x(3,1) = 1.54	 x(3,2) = 23.98	 x(3,3) = 8.54	 
y(0,1,0) = 0.00	 y(1,0,0) = 1.00	 
y(0,2,0) = 1.00	 y(2,0,0) = 0.00	 
y(0,3,0) = 0.92	 y(3,0,0) = 0.08	 
y(1,2,0) = 0.70	 y(2,1,0) = 0.30	 
y(1,3,0) = 1.00	 y(3,1,0) = 0.00	 
y(2,3,0) = 0.00	 y(3,2,0) = 1.00	 
y(0,1,1) = 0.12	 y(1,0,1) = 0.88	 
y(0,2,1) = 0.00	 y(2,0,1) = 1.00	 
y(0,3,1) = 0.00	 y(3,0,1) = 1.00	 
y(1,2,1) = 0.49	 y(2,1,1) = 0.51	 
y(1,3,1) = 0.16	 y(3,1,1) = 0.84	 
y(2,3,1) = 0.00	 y(3,2,1) = 1.00	 
y(0,1,2) = 0.69	 y(1,0,2) = 0.31	 
y(0,2,2) = 0.09	 y(2,0,2) = 0.91	 
y(0,3,2) = 1.00	 y(3,0,2) = -0.00	 
y(1,2,2) = 0.00	 y(2,1,2) = 1.00	 
y(1,3,2) = 0.87	 y(3,1,2) = 0.13	 
y(2,3,2) = 0.89	 y(3,2,2) = 0.11	 
y(0,1,3) = 0.00	 y(1,0,3) = 1.00	 
y(0,2,3) = 0.48	 y(2,0,3) = 0.52	 
y(0,3,3) = 0.08	 y(3,0,3) = 0.92	 
y(1,2,3) = 0.24	 y(2,1,3) = 0.76	 
y(1,3,3) = 0.21	 y(3,1,3) = 0.79	 
y(2,3,3) = 0.37	 y(3,2,3) = 0.63	 
obj:  1.0625398483613315
erro
[(1, 2), (3, 3), (0, 2), (1, 0), (2, 1), (2, 0), (2, 3), (0, 3), (1, 1)]
cliques:  0 mip: 0
iterações: 12 cortes cliques encontrados: 9 mip: 1101 objective:  35.0
Coin0506I Presolve 157 (-171) rows, 90 (-71) columns and 490 (-260) elements
Clp1000I sum of infeasibilities 1.79124e-08 - average 1.14092e-10, 0 fixed columns
Coin0506I Presolve 157 (0) rows, 90 (0) columns and 490 (0) elements
Clp0029I End of values pass after 90 iterations
Clp0000I Optimal - objective value 29
Clp0000I Optimal - objective value 29
Coin0511I After Postsolve, objective 29, infeasibilities - dual 0 (0), primal 0 (0)
Clp0000I Optimal - objective value 29
Clp0000I Optimal - objective value 29
Clp0000I Optimal - objective value 29
Coin0511I After Postsolve, objective 29, infeasibilities - dual 0 (0), primal 0 (0)
Clp0032I Optimal objective 29 - 0 iterations time 0.012, Presolve 0.00, Idiot 0.01
Coin3009W Conflict graph built in 0.000 seconds, density: 0.070%
